; benchmark generated from python API
(set-info :status unknown)
(define-funs-rec ( ( T2_08 ((x!1 Int)) Int)
                   ( b2_08 ((x!1 Int)) Int)
                   ( T2_06 ((x!1 Int)) Int)
                   ( p2_06 ((x!1 Int)) Int))
                 ( (mod ((_ b2_08 0) x!1) 2)
                   (let ((a!1 (- ((_ b2_08 0) (+ (div x!1 2) (mod x!1 2)))
                                 ((_ b2_08 0) (div x!1 2)))))
                     (ite (< x!1 2) x!1 a!1))
                   ((_ p2_06 0) x!1)
                   (let ((a!1 (mod (- x!1 ((_ p2_06 0) (div x!1 2))) 2)))
                     (ite (= x!1 0) 0 a!1))))
(assert
 (forall ((n Int) )(let ((?x382 ((_ T2_08 0) n)))
(let ((?x407 ((_ T2_06 0) n)))
(let (($x370 (= ?x407 ?x382)))
(let (($x406 (>= n 0)))
(=> $x406 $x370))))))
)
(check-sat)
